6 8
3 2 3 24 4 24 2 5 42 6 42 2 7 22 8 22
3 2 3 24 4 24 2 5 42 6 42 2 7 22 8 22
3 2 3 24 4 24 2 5 42 6 42 2 7 22 8 22
3 2 3 24 4 24 2 5 42 6 42 2 7 22 8 22
4 2 1 20 2 20 2 3 28 4 28 2 5 36 6 36 2 7 9 8 9
4 2 1 20 2 20 2 3 28 4 28 2 5 36 6 36 2 7 18 8 18